(set-logic ALL)
(set-option :produce-models true)
(declare-sort BoundSet 0)
(declare-sort UnboundSet 0)
(set-option :finite-model-find true)
(declare-fun IsCarriedOnBack (BoundSet BoundSet) Bool)
(declare-fun IsOutside (BoundSet) Bool)
(declare-fun IsWithoutBagOnBack (BoundSet BoundSet) Bool)
(assert (not (=> (exists ((c BoundSet)) (exists ((a BoundSet)) (IsCarriedOnBack a c))) (exists ((e BoundSet)) (exists ((a BoundSet)) (and (IsOutside a) (IsWithoutBagOnBack a e)))))))
(check-sat)
(get-model)